# Solution for model deposition_srl_ilp
# Objective value = 1.6460661142358664e+00
Z_124_0_0 0
Z_124_0_1 0
Z_124_0_2 0
Z_124_0_3 0
Z_124_0_4 1
Z_124_1_0 0
Z_124_1_1 0
Z_124_1_2 0
Z_124_1_3 0
Z_124_1_4 1
Z_124_8_0 0
Z_124_8_1 0
Z_124_8_2 1
Z_124_8_3 0
Z_124_8_4 0
